 H  O                                   
   1.00000000000000     
     8.0000000000000000    0.0000000000000000    0.0000000000000000
     0.0000000000000000    8.0000000000000000    0.0000000000000000
     0.0000000000000000    0.0000000000000000    8.0000000000000000
   H    O 
     2     1
Direct
  0.5372717437459900  0.4039492148632225  0.5000000000000000
  0.5372717437459900  0.5960507851367776  0.5000000000000000
  0.4627115875080175  0.4999966325000003  0.5000000000000000
 
  0.00000000E+00  0.00000000E+00  0.00000000E+00
  0.00000000E+00  0.00000000E+00  0.00000000E+00
  0.00000000E+00  0.00000000E+00  0.00000000E+00
