 H  O 
 1.0000000000000000
     8.0000000000000000    0.0000000000000000    0.0000000000000000
     0.0000000000000000    8.0000000000000000    0.0000000000000000
     0.0000000000000000    0.0000000000000000    8.0000000000000000
 H   O  
   2   1
Cartesian
  4.2980406000000002  3.2322662599999998  4.0000000000000000
  4.2980406000000002  4.7677337399999997  4.0000000000000000
  3.7019593999999998  3.9999730599999999  4.0000000000000000
