Si  O                                   
   1.00000000000000     
    13.3232624561921931    0.0000000000000000    0.0000000000000000
    -6.6616312280960939   11.5382837483498992    0.0000000000000000
     0.0000000000000000    0.0000000000000000   12.6968450954784782
   Si   O 
    30    60
Direct
  0.4329256789802542  0.0985912552870687  0.1759161336358375
  0.9014087447129313  0.3343344236931856  0.1759161336358375
  0.6656655763068144  0.5670743210197458  0.1759161336358375
  0.0985912552870687  0.4329256789802542  0.8240838663641625
  0.3343344236931856  0.9014087447129313  0.8240838663641625
  0.5670743210197458  0.6656655763068144  0.8240838663641625
  0.5670743210197458  0.9014087447129313  0.8240838663641625
  0.0985912552870687  0.6656655763068144  0.8240838663641625
  0.3343344236931856  0.4329256789802542  0.8240838663641625
  0.9014087447129313  0.5670743210197458  0.1759161336358375
  0.6656655763068144  0.0985912552870687  0.1759161336358375
  0.4329256789802542  0.3343344236931856  0.1759161336358375
  0.4343884745286601  0.0994915102686846  0.4165596590021678
  0.9005084897313154  0.3348969642599755  0.4165596590021678
  0.6651030357400245  0.5656115254713399  0.4165596590021678
  0.0994915102686846  0.4343884745286601  0.5834403409978322
  0.3348969642599755  0.9005084897313154  0.5834403409978322
  0.5656115254713399  0.6651030357400245  0.5834403409978322
  0.5656115254713399  0.9005084897313154  0.5834403409978322
  0.0994915102686846  0.6651030357400245  0.5834403409978322
  0.3348969642599755  0.4343884745286601  0.5834403409978322
  0.9005084897313154  0.5656115254713399  0.4165596590021678
  0.6651030357400245  0.0994915102686846  0.4165596590021678
  0.4343884745286601  0.3348969642599755  0.4165596590021678
  0.0000000000000000  0.2387484002943694  0.0000000000000000
  0.7612515997056306  0.7612515997056306  0.0000000000000000
  0.2387484002943694  0.0000000000000000  0.0000000000000000
  0.0000000000000000  0.7612515997056306  0.0000000000000000
  0.2387484002943694  0.2387484002943694  0.0000000000000000
  0.7612515997056306  0.0000000000000000  0.0000000000000000
  0.4712933598421643  0.2356466799210821  0.1697972982566895
  0.7643533200789179  0.2356466799210821  0.1697972982566895
  0.7643533200789179  0.5287066401578357  0.1697972982566895
  0.2356466799210821  0.4712933598421643  0.8302027017433105
  0.2356466799210821  0.7643533200789179  0.8302027017433105
  0.5287066401578357  0.7643533200789179  0.8302027017433105
  0.3208597049939996  0.0220454863684552  0.1021713541022748
  0.9779545136315448  0.2988142186255445  0.1021713541022748
  0.7011857813744555  0.6791402950060004  0.1021713541022748
  0.0220454863684552  0.3208597049939996  0.8978286458977252
  0.2988142186255445  0.9779545136315448  0.8978286458977252
  0.6791402950060004  0.7011857813744555  0.8978286458977252
  0.6791402950060004  0.9779545136315448  0.8978286458977252
  0.0220454863684552  0.7011857813744555  0.8978286458977252
  0.2988142186255445  0.3208597049939996  0.8978286458977252
  0.9779545136315448  0.6791402950060004  0.1021713541022748
  0.7011857813744555  0.0220454863684552  0.1021713541022748
  0.3208597049939996  0.2988142186255445  0.1021713541022748
  0.5423252882746112  0.0846505765492225  0.1376244798566688
  0.9153494234507775  0.4576747117253888  0.1376244798566688
  0.5423252882746112  0.4576747117253888  0.1376244798566688
  0.0846505765492225  0.5423252882746112  0.8623755201433312
  0.4576747117253888  0.9153494234507775  0.8623755201433312
  0.4576747117253888  0.5423252882746112  0.8623755201433312
  0.3973717761351026  0.0512607278233617  0.2964547086772669
  0.9487392721766454  0.3461110483117480  0.2964547086772669
  0.6538889516882449  0.6026282238648974  0.2964547086772669
  0.0512607278233617  0.3973717761351026  0.7035452913227331
  0.3461110483117480  0.9487392721766383  0.7035452913227331
  0.6026282238648974  0.6538889516882449  0.7035452913227331
  0.6026282238648974  0.9487392721766383  0.7035452913227331
  0.0512607278233617  0.6538889516882449  0.7035452913227331
  0.3461110483117480  0.3973717761351026  0.7035452913227331
  0.9487392721766454  0.6026282238648974  0.2964547086772669
  0.6538889516882449  0.0512607278233617  0.2964547086772669
  0.3973717761351026  0.3461110483117480  0.2964547086772669
  0.5709802937604991  0.1419605875210124  0.4350228571618757
  0.8580394124789876  0.4290197062395009  0.4350228571618757
  0.5709802937604991  0.4290197062395009  0.4350228571618757
  0.1419605875210124  0.5709802937604991  0.5649771428381243
  0.4290197062395009  0.8580394124789876  0.5649771428381243
  0.4290197062395009  0.5709802937604991  0.5649771428381243
  0.3547023854467497  0.0000000000000000  0.5000000000000000
  0.0000000000000000  0.3547023854467497  0.5000000000000000
  0.6452976145532503  0.6452976145532503  0.5000000000000000
  0.6452976145532503  0.0000000000000000  0.5000000000000000
  0.0000000000000000  0.6452976145532503  0.5000000000000000
  0.3547023854467497  0.3547023854467497  0.5000000000000000
  0.4132437455631575  0.2066218727815823  0.4374832662137820
  0.7933781272184177  0.2066218727815823  0.4374832662137820
  0.7933781272184177  0.5867562544368425  0.4374832662137820
  0.2066218727815823  0.4132437455631575  0.5625167337862180
  0.2066218727815823  0.7933781272184177  0.5625167337862180
  0.5867562544368425  0.7933781272184177  0.5625167337862180
  0.8878095343935399  0.1121904656064601  0.9773110896936217
  0.8878095343935399  0.7756190687870799  0.9773110896936217
  0.2243809312129201  0.1121904656064601  0.9773110896936217
  0.1121904656064601  0.8878095343935399  0.0226889103063783
  0.7756190687870799  0.8878095343935399  0.0226889103063783
  0.1121904656064601  0.2243809312129201  0.0226889103063783
 
  0.00000000E+00  0.00000000E+00  0.00000000E+00
  0.00000000E+00  0.00000000E+00  0.00000000E+00
  0.00000000E+00  0.00000000E+00  0.00000000E+00
  0.00000000E+00  0.00000000E+00  0.00000000E+00
  0.00000000E+00  0.00000000E+00  0.00000000E+00
  0.00000000E+00  0.00000000E+00  0.00000000E+00
  0.00000000E+00  0.00000000E+00  0.00000000E+00
  0.00000000E+00  0.00000000E+00  0.00000000E+00
  0.00000000E+00  0.00000000E+00  0.00000000E+00
  0.00000000E+00  0.00000000E+00  0.00000000E+00
  0.00000000E+00  0.00000000E+00  0.00000000E+00
  0.00000000E+00  0.00000000E+00  0.00000000E+00
  0.00000000E+00  0.00000000E+00  0.00000000E+00
  0.00000000E+00  0.00000000E+00  0.00000000E+00
  0.00000000E+00  0.00000000E+00  0.00000000E+00
  0.00000000E+00  0.00000000E+00  0.00000000E+00
  0.00000000E+00  0.00000000E+00  0.00000000E+00
  0.00000000E+00  0.00000000E+00  0.00000000E+00
  0.00000000E+00  0.00000000E+00  0.00000000E+00
  0.00000000E+00  0.00000000E+00  0.00000000E+00
  0.00000000E+00  0.00000000E+00  0.00000000E+00
  0.00000000E+00  0.00000000E+00  0.00000000E+00
  0.00000000E+00  0.00000000E+00  0.00000000E+00
  0.00000000E+00  0.00000000E+00  0.00000000E+00
  0.00000000E+00  0.00000000E+00  0.00000000E+00
  0.00000000E+00  0.00000000E+00  0.00000000E+00
  0.00000000E+00  0.00000000E+00  0.00000000E+00
  0.00000000E+00  0.00000000E+00  0.00000000E+00
  0.00000000E+00  0.00000000E+00  0.00000000E+00
  0.00000000E+00  0.00000000E+00  0.00000000E+00
  0.00000000E+00  0.00000000E+00  0.00000000E+00
  0.00000000E+00  0.00000000E+00  0.00000000E+00
  0.00000000E+00  0.00000000E+00  0.00000000E+00
  0.00000000E+00  0.00000000E+00  0.00000000E+00
  0.00000000E+00  0.00000000E+00  0.00000000E+00
  0.00000000E+00  0.00000000E+00  0.00000000E+00
  0.00000000E+00  0.00000000E+00  0.00000000E+00
  0.00000000E+00  0.00000000E+00  0.00000000E+00
  0.00000000E+00  0.00000000E+00  0.00000000E+00
  0.00000000E+00  0.00000000E+00  0.00000000E+00
  0.00000000E+00  0.00000000E+00  0.00000000E+00
  0.00000000E+00  0.00000000E+00  0.00000000E+00
  0.00000000E+00  0.00000000E+00  0.00000000E+00
  0.00000000E+00  0.00000000E+00  0.00000000E+00
  0.00000000E+00  0.00000000E+00  0.00000000E+00
  0.00000000E+00  0.00000000E+00  0.00000000E+00
  0.00000000E+00  0.00000000E+00  0.00000000E+00
  0.00000000E+00  0.00000000E+00  0.00000000E+00
  0.00000000E+00  0.00000000E+00  0.00000000E+00
  0.00000000E+00  0.00000000E+00  0.00000000E+00
  0.00000000E+00  0.00000000E+00  0.00000000E+00
  0.00000000E+00  0.00000000E+00  0.00000000E+00
  0.00000000E+00  0.00000000E+00  0.00000000E+00
  0.00000000E+00  0.00000000E+00  0.00000000E+00
  0.00000000E+00  0.00000000E+00  0.00000000E+00
  0.00000000E+00  0.00000000E+00  0.00000000E+00
  0.00000000E+00  0.00000000E+00  0.00000000E+00
  0.00000000E+00  0.00000000E+00  0.00000000E+00
  0.00000000E+00  0.00000000E+00  0.00000000E+00
  0.00000000E+00  0.00000000E+00  0.00000000E+00
  0.00000000E+00  0.00000000E+00  0.00000000E+00
  0.00000000E+00  0.00000000E+00  0.00000000E+00
  0.00000000E+00  0.00000000E+00  0.00000000E+00
  0.00000000E+00  0.00000000E+00  0.00000000E+00
  0.00000000E+00  0.00000000E+00  0.00000000E+00
  0.00000000E+00  0.00000000E+00  0.00000000E+00
  0.00000000E+00  0.00000000E+00  0.00000000E+00
  0.00000000E+00  0.00000000E+00  0.00000000E+00
  0.00000000E+00  0.00000000E+00  0.00000000E+00
  0.00000000E+00  0.00000000E+00  0.00000000E+00
  0.00000000E+00  0.00000000E+00  0.00000000E+00
  0.00000000E+00  0.00000000E+00  0.00000000E+00
  0.00000000E+00  0.00000000E+00  0.00000000E+00
  0.00000000E+00  0.00000000E+00  0.00000000E+00
  0.00000000E+00  0.00000000E+00  0.00000000E+00
  0.00000000E+00  0.00000000E+00  0.00000000E+00
  0.00000000E+00  0.00000000E+00  0.00000000E+00
  0.00000000E+00  0.00000000E+00  0.00000000E+00
  0.00000000E+00  0.00000000E+00  0.00000000E+00
  0.00000000E+00  0.00000000E+00  0.00000000E+00
  0.00000000E+00  0.00000000E+00  0.00000000E+00
  0.00000000E+00  0.00000000E+00  0.00000000E+00
  0.00000000E+00  0.00000000E+00  0.00000000E+00
  0.00000000E+00  0.00000000E+00  0.00000000E+00
  0.00000000E+00  0.00000000E+00  0.00000000E+00
  0.00000000E+00  0.00000000E+00  0.00000000E+00
  0.00000000E+00  0.00000000E+00  0.00000000E+00
  0.00000000E+00  0.00000000E+00  0.00000000E+00
  0.00000000E+00  0.00000000E+00  0.00000000E+00
  0.00000000E+00  0.00000000E+00  0.00000000E+00
