Si  O 
 1.0000000000000000
    13.3232624561921931    0.0000000000000000   -0.0000000000000000
    -6.6616312280960939   11.5382837483498992    0.0000000000000000
    -0.0000000000000000   -0.0000000000000000   12.6968450954784782
  30  60
Cartesian
  5.1112038600415950  1.1375738786082192  2.2335798985697073
  9.7824926486150829  3.8576454474129989  2.2335798985697073
  5.0911971756316108  6.5430644223286851  2.2335798985697073
 -1.5704340524644838  4.9952193260212150 10.4632651969087718
 -1.5504273680544962 10.4007098697416822 10.4632651969087718
  3.1208614205189900  7.6806383009369013 10.4632651969087718
  1.5504273680545033 10.4007098697416822 10.4632651969087718
 -3.1208614205189829  7.6806383009369013 10.4632651969087718
  1.5704340524644897  4.9952193260212150 10.4632651969087718
  8.2320652805605832  6.5430644223286851  2.2335798985697073
  8.2120585961505963  1.1375738786082192  2.2335798985697073
  3.5407698075771092  3.8576454474129989  2.2335798985697073
  5.1246959023539862  1.1479612760319622  5.2889934633758209
  9.7667508774107219  3.8641362000925894  5.2889934633758209
  5.0934469045235895  6.5261862722253445  5.2889934633758209
 -1.5681843235725124  5.0120974761245511  7.4078516321026582
 -1.5369353257421086 10.3903224723179388  7.4078516321026582
  3.1051196493146200  7.6741475482573129  7.4078516321026582
  1.5369353257421077 10.3903224723179388  7.4078516321026582
 -3.1051196493146240  7.6741475482573129  7.4078516321026582
  1.5681843235725155  5.0120974761245511  7.4078516321026582
  8.2298155516686151  6.5261862722253445  5.2889934633758209
  8.1985665538382104  1.1479612760319622  5.2889934633758209
  3.5565115787814729  3.8641362000925894  5.2889934633758209
 -1.5904537990589760  2.7547467870610900  0.0000000000000000
  5.0711774290371210  8.7835369612888083  0.0000000000000000
  3.1809075981179529  0.0000000000000000  0.0000000000000000
 -5.0711774290371174  8.7835369612888083  0.0000000000000000
  1.5904537990589769  2.7547467870610900  0.0000000000000000
 10.1423548580742384  0.0000000000000000  0.0000000000000000
  4.7093738452782894  2.7189582572860584  2.1558899935959608
  8.6138886109138131  2.7189582572860584  2.1558899935959608
  6.6616312280960557  6.1003672337778614  2.1558899935959608
  0.0000000000000484  5.4379165145720352 10.5409551018825169
 -1.9522573828177125  8.8193254910638430 10.5409551018825169
  1.9522573828178045  8.8193254910638430 10.5409551018825169
  4.1280391608208253  0.2543670770896124  1.2972538562318576
 11.0389545251357717  3.4478032425430305  1.2972538562318576
  4.8178999983316810  7.8361134287172618  1.2972538562318576
 -1.8437312297644128  3.7021703196326379 11.3995912392466234
 -2.5335920672752588 11.2839166712602808 11.3995912392466234
  4.3773232970396885  8.0904805058068714 11.3995912392466234
  2.5335920672752774 11.2839166712602808 11.3995912392466234
 -4.3773232970396814  8.0904805058068714 11.3995912392466234
  1.8437312297644208  3.7021703196326379 11.3995912392466234
  8.5053624578605049  7.8361134287172618  1.2972538562318576
  9.1952232953713651  0.2543670770896124  1.2972538562318576
  2.2843079310564094  3.4478032425430305  1.2972538562318576
  6.6616312280960504  0.9767223716863720  1.7473967020859473
  9.1465804558191373  5.2807806883318040  1.7473967020859473
  4.1766820003729643  5.2807806883318040  1.7473967020859473
 -2.4849492277230389  6.2575030600180952 10.9494483933925260
  0.0000000000000488 10.5615613766635263 10.9494483933925260
  2.4849492277231349  6.2575030600180952 10.9494483933925260
  4.9528084008882027  0.5914608227728437  3.7640395139004323
 10.3346381578835214  3.9935274838598258  3.7640395139004323
  4.6974471255164243  6.9532954417173114  3.7640395139004323
 -1.9641841025795723  4.5849883066325887  8.9328055815780498
 -1.7088228272077997 10.9468229255770595  8.9328055815780498
  3.6730069297875199  7.5447562644900668  8.9328055815780498
  1.7088228272078956 10.9468229255770595  8.9328055815780498
 -3.6730069297874151  7.5447562644900668  8.9328055815780498
  1.9641841025796674  4.5849883066325887  8.9328055815780498
  8.6258153306756746  6.9532954417173114  3.7640395139004323
  8.3704540553038900  0.5914608227728437  3.7640395139004323
  2.9886242983085838  3.9935274838598258  3.7640395139004323
  6.6616312280960468  1.6379815398998849  5.5234178303768022
  8.5739132176608663  4.9501511042250472  5.5234178303768022
  4.7493492385312308  4.9501511042250472  5.5234178303768022
 -1.9122819895647676  6.5881326441248484  7.1734272651016759
  0.0000000000000497  9.9003022084500127  7.1734272651016759
  1.9122819895648671  6.5881326441248484  7.1734272651016759
  4.7257929751444694  0.0000000000000000  6.3484225477392391
 -2.3628964875722338  4.0926567695011542  6.3484225477392391
  4.2987347405238658  7.4456269788487486  6.3484225477392391
  8.5974694810477281  0.0000000000000000  6.3484225477392391
 -4.2987347405238623  7.4456269788487486  6.3484225477392391
  2.3628964875722356  4.0926567695011542  6.3484225477392391
  4.1293161603883384  2.3840617967693341  5.5546572629803519
  9.1939462958037605  2.3840617967693341  5.5546572629803519
  6.6616312280960486  6.7701601548113146  5.5546572629803519
  0.0000000000000484  4.7681235935385864  7.1421878324981209
 -2.5323150677076613  9.1542219515805652  7.1421878324981209
  2.5323150677077626  9.1542219515805652  7.1421878324981209
 11.0811479286563550  1.2944854260267864 12.4087675159331798
  6.6616312280961463  8.9493128962962416 12.4087675159331798
  2.2421145275359322  1.2944854260267864 12.4087675159331798
 -4.4195167005602558 10.2437983223231104  0.2880775795452968
  4.4195167005601652 10.2437983223231104  0.2880775795452968
 -0.0000000000000469  2.5889708520536550  0.2880775795452968
